p cnf 386 460
-15 -1 8 21 22 0
-15 -1 8 21 -22 0
-15 -1 8 -21 23 0
-15 -1 8 -21 -23 0
-12 -1 -7 24 25 0
-12 -1 -7 24 -25 0
-12 -1 -7 -24 26 0
-12 -1 -7 -24 -26 0
1 12 13 27 28 0
1 12 13 27 -28 0
1 12 13 -27 29 0
1 12 13 -27 -29 0
-20 -16 -9 30 31 0
-20 -16 -9 30 -31 0
-20 -16 -9 -30 32 0
-20 -16 -9 -30 -32 0
8 -1 10 33 34 0
8 -1 10 33 -34 0
8 -1 10 -33 35 0
8 -1 10 -33 -35 0
-9 13 10 36 37 0
-9 13 10 36 -37 0
-9 13 10 -36 38 0
-9 13 10 -36 -38 0
3 -18 7 39 40 0
3 -18 7 39 -40 0
3 -18 7 -39 41 0
3 -18 7 -39 -41 0
8 -18 20 42 43 0
8 -18 20 42 -43 0
8 -18 20 -42 44 0
8 -18 20 -42 -44 0
-7 -15 18 45 46 0
-7 -15 18 45 -46 0
-7 -15 18 -45 47 0
-7 -15 18 -45 -47 0
-12 -4 -6 48 49 0
-12 -4 -6 48 -49 0
-12 -4 -6 -48 50 0
-12 -4 -6 -48 -50 0
-4 3 -11 51 52 0
-4 3 -11 51 -52 0
-4 3 -11 -51 53 0
-4 3 -11 -51 -53 0
8 -14 2 54 55 0
8 -14 2 54 -55 0
8 -14 2 -54 56 0
8 -14 2 -54 -56 0
2 -17 -9 57 58 0
2 -17 -9 57 -58 0
2 -17 -9 -57 59 0
2 -17 -9 -57 -59 0
-15 -9 11 60 61 0
-15 -9 11 60 -61 0
-15 -9 11 -60 62 0
-15 -9 11 -60 -62 0
18 12 -7 63 64 0
18 12 -7 63 -64 0
18 12 -7 -63 65 0
18 12 -7 -63 -65 0
18 -6 2 66 67 0
18 -6 2 66 -67 0
18 -6 2 -66 68 0
18 -6 2 -66 -68 0
1 4 3 69 70 0
1 4 3 69 -70 0
1 4 3 -69 71 0
1 4 3 -69 -71 0
-11 -10 -18 72 73 0
-11 -10 -18 72 -73 0
-11 -10 -18 -72 74 0
-11 -10 -18 -72 -74 0
15 13 2 75 76 0
15 13 2 75 -76 0
15 13 2 -75 77 0
15 13 2 -75 -77 0
-9 2 -14 78 79 0
-9 2 -14 78 -79 0
-9 2 -14 -78 80 0
-9 2 -14 -78 -80 0
-15 -3 -1 81 82 0
-15 -3 -1 81 -82 0
-15 -3 -1 -81 83 0
-15 -3 -1 -81 -83 0
6 -11 19 84 85 0
6 -11 19 84 -85 0
6 -11 19 -84 86 0
6 -11 19 -84 -86 0
9 2 -16 87 88 0
9 2 -16 87 -88 0
9 2 -16 -87 89 0
9 2 -16 -87 -89 0
20 16 6 90 91 0
20 16 6 90 -91 0
20 16 6 -90 92 0
20 16 6 -90 -92 0
-4 9 -12 93 94 0
-4 9 -12 93 -94 0
-4 9 -12 -93 95 0
-4 9 -12 -93 -95 0
12 20 16 96 97 0
12 20 16 96 -97 0
12 20 16 -96 98 0
12 20 16 -96 -98 0
-1 -6 -9 99 100 0
-1 -6 -9 99 -100 0
-1 -6 -9 -99 101 0
-1 -6 -9 -99 -101 0
-15 8 4 102 103 0
-15 8 4 102 -103 0
-15 8 4 -102 104 0
-15 8 4 -102 -104 0
-11 -6 5 105 106 0
-11 -6 5 105 -106 0
-11 -6 5 -105 107 0
-11 -6 5 -105 -107 0
20 7 -5 108 109 0
20 7 -5 108 -109 0
20 7 -5 -108 110 0
20 7 -5 -108 -110 0
-4 -2 -7 111 112 0
-4 -2 -7 111 -112 0
-4 -2 -7 -111 113 0
-4 -2 -7 -111 -113 0
20 -13 9 114 115 0
20 -13 9 114 -115 0
20 -13 9 -114 116 0
20 -13 9 -114 -116 0
-19 20 -9 117 118 0
-19 20 -9 117 -118 0
-19 20 -9 -117 119 0
-19 20 -9 -117 -119 0
-4 7 18 120 121 0
-4 7 18 120 -121 0
-4 7 18 -120 122 0
-4 7 18 -120 -122 0
-15 -8 10 123 124 0
-15 -8 10 123 -124 0
-15 -8 10 -123 125 0
-15 -8 10 -123 -125 0
3 13 12 126 127 0
3 13 12 126 -127 0
3 13 12 -126 128 0
3 13 12 -126 -128 0
2 17 -6 129 130 0
2 17 -6 129 -130 0
2 17 -6 -129 131 0
2 17 -6 -129 -131 0
15 -19 -18 132 133 0
15 -19 -18 132 -133 0
15 -19 -18 -132 134 0
15 -19 -18 -132 -134 0
-16 -17 5 135 136 0
-16 -17 5 135 -136 0
-16 -17 5 -135 137 0
-16 -17 5 -135 -137 0
18 6 14 138 139 0
18 6 14 138 -139 0
18 6 14 -138 140 0
18 6 14 -138 -140 0
11 8 17 141 142 0
11 8 17 141 -142 0
11 8 17 -141 143 0
11 8 17 -141 -143 0
-8 -11 -18 144 145 0
-8 -11 -18 144 -145 0
-8 -11 -18 -144 146 0
-8 -11 -18 -144 -146 0
10 -15 17 147 148 0
10 -15 17 147 -148 0
10 -15 17 -147 149 0
10 -15 17 -147 -149 0
5 14 -6 150 151 0
5 14 -6 150 -151 0
5 14 -6 -150 152 0
5 14 -6 -150 -152 0
14 -4 3 153 154 0
14 -4 3 153 -154 0
14 -4 3 -153 155 0
14 -4 3 -153 -155 0
11 2 14 156 157 0
11 2 14 156 -157 0
11 2 14 -156 158 0
11 2 14 -156 -158 0
9 11 -13 159 160 0
9 11 -13 159 -160 0
9 11 -13 -159 161 0
9 11 -13 -159 -161 0
-3 -12 8 162 163 0
-3 -12 8 162 -163 0
-3 -12 8 -162 164 0
-3 -12 8 -162 -164 0
-9 -3 19 165 166 0
-9 -3 19 165 -166 0
-9 -3 19 -165 167 0
-9 -3 19 -165 -167 0
-11 -5 -9 168 169 0
-11 -5 -9 168 -169 0
-11 -5 -9 -168 170 0
-11 -5 -9 -168 -170 0
-20 -3 1 171 172 0
-20 -3 1 171 -172 0
-20 -3 1 -171 173 0
-20 -3 1 -171 -173 0
16 19 -15 174 175 0
16 19 -15 174 -175 0
16 19 -15 -174 176 0
16 19 -15 -174 -176 0
2 6 9 177 178 0
2 6 9 177 -178 0
2 6 9 -177 179 0
2 6 9 -177 -179 0
-15 14 11 180 181 0
-15 14 11 180 -181 0
-15 14 11 -180 182 0
-15 14 11 -180 -182 0
19 18 -6 183 184 0
19 18 -6 183 -184 0
19 18 -6 -183 185 0
19 18 -6 -183 -185 0
7 9 -1 186 187 0
7 9 -1 186 -187 0
7 9 -1 -186 188 0
7 9 -1 -186 -188 0
11 18 -9 189 190 0
11 18 -9 189 -190 0
11 18 -9 -189 191 0
11 18 -9 -189 -191 0
-3 -8 18 192 193 0
-3 -8 18 192 -193 0
-3 -8 18 -192 194 0
-3 -8 18 -192 -194 0
19 12 17 195 196 0
19 12 17 195 -196 0
19 12 17 -195 197 0
19 12 17 -195 -197 0
-10 -4 -1 198 199 0
-10 -4 -1 198 -199 0
-10 -4 -1 -198 200 0
-10 -4 -1 -198 -200 0
-13 18 19 201 202 0
-13 18 19 201 -202 0
-13 18 19 -201 203 0
-13 18 19 -201 -203 0
-4 16 18 204 205 0
-4 16 18 204 -205 0
-4 16 18 -204 206 0
-4 16 18 -204 -206 0
5 -3 12 207 208 0
5 -3 12 207 -208 0
5 -3 12 -207 209 0
5 -3 12 -207 -209 0
6 -12 20 210 211 0
6 -12 20 210 -211 0
6 -12 20 -210 212 0
6 -12 20 -210 -212 0
5 10 -8 213 214 0
5 10 -8 213 -214 0
5 10 -8 -213 215 0
5 10 -8 -213 -215 0
-16 -18 -15 216 217 0
-16 -18 -15 216 -217 0
-16 -18 -15 -216 218 0
-16 -18 -15 -216 -218 0
14 -15 -13 219 220 0
14 -15 -13 219 -220 0
14 -15 -13 -219 221 0
14 -15 -13 -219 -221 0
-11 -18 -9 222 223 0
-11 -18 -9 222 -223 0
-11 -18 -9 -222 224 0
-11 -18 -9 -222 -224 0
-18 3 17 225 226 0
-18 3 17 225 -226 0
-18 3 17 -225 227 0
-18 3 17 -225 -227 0
5 -12 10 228 229 0
5 -12 10 228 -229 0
5 -12 10 -228 230 0
5 -12 10 -228 -230 0
-5 13 4 231 232 0
-5 13 4 231 -232 0
-5 13 4 -231 233 0
-5 13 4 -231 -233 0
14 18 -19 234 235 0
14 18 -19 234 -235 0
14 18 -19 -234 236 0
14 18 -19 -234 -236 0
-3 15 12 237 238 0
-3 15 12 237 -238 0
-3 15 12 -237 239 0
-3 15 12 -237 -239 0
9 5 -8 240 241 0
9 5 -8 240 -241 0
9 5 -8 -240 242 0
9 5 -8 -240 -242 0
16 18 15 243 244 0
16 18 15 243 -244 0
16 18 15 -243 245 0
16 18 15 -243 -245 0
-8 -3 10 246 247 0
-8 -3 10 246 -247 0
-8 -3 10 -246 248 0
-8 -3 10 -246 -248 0
10 2 11 249 250 0
10 2 11 249 -250 0
10 2 11 -249 251 0
10 2 11 -249 -251 0
16 -12 18 252 253 0
16 -12 18 252 -253 0
16 -12 18 -252 254 0
16 -12 18 -252 -254 0
-9 1 10 255 256 0
-9 1 10 255 -256 0
-9 1 10 -255 257 0
-9 1 10 -255 -257 0
-12 -8 2 258 259 0
-12 -8 2 258 -259 0
-12 -8 2 -258 260 0
-12 -8 2 -258 -260 0
-3 13 19 261 262 0
-3 13 19 261 -262 0
-3 13 19 -261 263 0
-3 13 19 -261 -263 0
4 -11 17 264 265 0
4 -11 17 264 -265 0
4 -11 17 -264 266 0
4 -11 17 -264 -266 0
4 -11 13 267 268 0
4 -11 13 267 -268 0
4 -11 13 -267 269 0
4 -11 13 -267 -269 0
-4 -10 13 270 271 0
-4 -10 13 270 -271 0
-4 -10 13 -270 272 0
-4 -10 13 -270 -272 0
10 -7 -3 273 274 0
10 -7 -3 273 -274 0
10 -7 -3 -273 275 0
10 -7 -3 -273 -275 0
8 -10 -11 276 277 0
8 -10 -11 276 -277 0
8 -10 -11 -276 278 0
8 -10 -11 -276 -278 0
-6 8 -13 279 280 0
-6 8 -13 279 -280 0
-6 8 -13 -279 281 0
-6 8 -13 -279 -281 0
-17 14 -6 282 283 0
-17 14 -6 282 -283 0
-17 14 -6 -282 284 0
-17 14 -6 -282 -284 0
-1 -12 5 285 286 0
-1 -12 5 285 -286 0
-1 -12 5 -285 287 0
-1 -12 5 -285 -287 0
-14 1 11 288 289 0
-14 1 11 288 -289 0
-14 1 11 -288 290 0
-14 1 11 -288 -290 0
-8 -13 -18 291 292 0
-8 -13 -18 291 -292 0
-8 -13 -18 -291 293 0
-8 -13 -18 -291 -293 0
294 295 297 301 309 0
294 295 297 301 -309 0
294 295 297 -301 310 0
294 295 297 -301 -310 0
294 295 -297 302 311 0
294 295 -297 302 -311 0
294 295 -297 -302 312 0
294 295 -297 -302 -312 0
294 -295 298 303 313 0
294 -295 298 303 -313 0
294 -295 298 -303 314 0
294 -295 298 -303 -314 0
294 -295 -298 304 315 0
294 -295 -298 304 -315 0
294 -295 -298 -304 316 0
294 -295 -298 -304 -316 0
-294 296 299 305 317 0
-294 296 299 305 -317 0
-294 296 299 -305 318 0
-294 296 299 -305 -318 0
-294 296 -299 306 319 0
-294 296 -299 306 -319 0
-294 296 -299 -306 320 0
-294 296 -299 -306 -320 0
-294 -296 300 307 321 0
-294 -296 300 307 -321 0
-294 -296 300 -307 322 0
-294 -296 300 -307 -322 0
-294 -296 -300 308 323 0
-294 -296 -300 308 -323 0
-294 -296 -300 -308 324 0
-294 -296 -300 -308 -324 0
325 326 328 332 340 0
325 326 328 332 -340 0
325 326 328 -332 341 0
325 326 328 -332 -341 0
325 326 -328 333 342 0
325 326 -328 333 -342 0
325 326 -328 -333 343 0
325 326 -328 -333 -343 0
325 -326 329 334 344 0
325 -326 329 334 -344 0
325 -326 329 -334 345 0
325 -326 329 -334 -345 0
325 -326 -329 335 346 0
325 -326 -329 335 -346 0
325 -326 -329 -335 347 0
325 -326 -329 -335 -347 0
-325 327 330 336 348 0
-325 327 330 336 -348 0
-325 327 330 -336 349 0
-325 327 330 -336 -349 0
-325 327 -330 337 350 0
-325 327 -330 337 -350 0
-325 327 -330 -337 351 0
-325 327 -330 -337 -351 0
-325 -327 331 338 352 0
-325 -327 331 338 -352 0
-325 -327 331 -338 353 0
-325 -327 331 -338 -353 0
-325 -327 -331 339 354 0
-325 -327 -331 339 -354 0
-325 -327 -331 -339 355 0
-325 -327 -331 -339 -355 0
356 357 359 363 371 0
356 357 359 363 -371 0
356 357 359 -363 372 0
356 357 359 -363 -372 0
356 357 -359 364 373 0
356 357 -359 364 -373 0
356 357 -359 -364 374 0
356 357 -359 -364 -374 0
356 -357 360 365 375 0
356 -357 360 365 -375 0
356 -357 360 -365 376 0
356 -357 360 -365 -376 0
356 -357 -360 366 377 0
356 -357 -360 366 -377 0
356 -357 -360 -366 378 0
356 -357 -360 -366 -378 0
-356 358 361 367 379 0
-356 358 361 367 -379 0
-356 358 361 -367 380 0
-356 358 361 -367 -380 0
-356 358 -361 368 381 0
-356 358 -361 368 -381 0
-356 358 -361 -368 382 0
-356 358 -361 -368 -382 0
-356 -358 362 369 383 0
-356 -358 362 369 -383 0
-356 -358 362 -369 384 0
-356 -358 362 -369 -384 0
-356 -358 -362 370 385 0
-356 -358 -362 370 -385 0
-356 -358 -362 -370 386 0
-356 -358 -362 -370 -386 0

